Version identifier: 22.1.1.0 | 2022-11-28 | 9160aff4d
CPXPARAM_ClockType                               1
CPXPARAM_Read_DataCheck                          1
CPXPARAM_Threads                                 1
CPXPARAM_TimeLimit                               7200
CPXPARAM_MIP_Tolerances_AbsMIPGap                0
CPXPARAM_MIP_Tolerances_MIPGap                   0
CPXPARAM_MIP_Tolerances_Integrality              0
Tried aggregator 2 times.
MIP Presolve eliminated 2916 rows and 16 columns.
MIP Presolve modified 1292 coefficients.
Aggregator did 525 substitutions.
Reduced MIP has 827 rows, 1309 columns, and 4050 nonzeros.
Reduced MIP has 1309 binaries, 0 generals, 0 SOSs, and 0 indicators.
Presolve time = 0.02 sec. (9.92 ticks)
Found incumbent of value 34.000000 after 0.03 sec. (15.60 ticks)
Probing time = 0.00 sec. (2.24 ticks)
Tried aggregator 2 times.
Detecting symmetries...
Aggregator did 1 substitutions.
Reduced MIP has 826 rows, 1308 columns, and 4050 nonzeros.
Reduced MIP has 1308 binaries, 0 generals, 0 SOSs, and 0 indicators.
Presolve time = 0.01 sec. (3.81 ticks)
Probing time = 0.01 sec. (2.20 ticks)
Clique table members: 2750.
MIP emphasis: balance optimality and feasibility.
MIP search method: dynamic search.
Parallel mode: none, using 1 thread.
Root relaxation solution time = 0.01 sec. (9.86 ticks)

        Nodes                                         Cuts/
   Node  Left     Objective  IInf  Best Integer    Best Bound    ItCnt     Gap

*     0+    0                           34.0000      262.0000           670.59%
*     0     0      integral     0      123.0000      123.0000      775    0.00%
Elapsed time = 0.06 sec. (36.72 ticks, tree = 0.00 MB, solutions = 2)

Root node processing (before b&c):
  Real time             =    0.06 sec. (36.80 ticks)
Sequential b&c:
  Real time             =    0.00 sec. (0.00 ticks)
                          ------------
Total (root+branch&cut) =    0.06 sec. (36.80 ticks)
Solution is feasible.

---------------------
@@@ MIP_optimal
>>> Benchmark mc2024_track1_006.cnf k 2 OPT 123 TimeCost 0.3166337013244629 TimeSolve 0.06578230857849121 TimeRead 0.004305601119995117 TimeTrans 0.24654579162597656
